hw1/knapsack.lp
maximize
11x+4.25y+9z
subject to
16x+3.75y+6z < 30
3x+4.25y+3z < 20
x < 3
y < 3.5
z < 1
integer
end