hw1/knapsack.out
Problem:    
Rows:       5
Columns:    3
Non-zeros:  9
Status:     OPTIMAL
Objective:  obj = 31.3515625 (MAXimum)

   No.   Row name   St   Activity     Lower bound   Upper bound    Marginal
------ ------------ -- ------------- ------------- ------------- -------------
     1 r.4          NU            30                          30        0.6875 
     2 r.5          B        19.9141                          20 
     3 r.6          B       0.679687                           3 
     4 r.7          NU           3.5                         3.5       1.67188 
     5 r.8          NU             1                           1         4.875 

   No. Column name  St   Activity     Lower bound   Upper bound    Marginal
------ ------------ -- ------------- ------------- ------------- -------------
     1 x            B       0.679687             0               
     2 y            B            3.5             0               
     3 z            B              1             0               

Karush-Kuhn-Tucker optimality conditions:

KKT.PE: max.abs.err = 0.00e+00 on row 0
        max.rel.err = 0.00e+00 on row 0
        High quality

KKT.PB: max.abs.err = 0.00e+00 on row 0
        max.rel.err = 0.00e+00 on row 0
        High quality

KKT.DE: max.abs.err = 0.00e+00 on column 0
        max.rel.err = 0.00e+00 on column 0
        High quality

KKT.DB: max.abs.err = 0.00e+00 on row 0
        max.rel.err = 0.00e+00 on row 0
        High quality

End of output
